57116
55, 49, 26, 54, 34, 47, 30, 4, 18, 12, 14, 9, 2, 52, 25, 31, 11, 45, 42, 33, 27, 1, 36, 46, 39, 16, 15, 10, 22, 29, 21, 23, 53, 48, 17, 19, 32, 41, 8, 44, 38, 24, 50, 20, 35, 5, 37, 7, 51, 40, 43, 13, 6, 3, 28
